# Solution for model r3_t9_m8_3
# Finished Task: 9 / 9
# Makespan: 493.0, Total Distance: 297.0, Total Time: 0.3933
# R O S F
0 0 8 59.0 59.0
1 1 7 75.0 75.0
2 2 6 71.0 71.0
3 2 -1 458.0 493.0
4 1 -1 431.0 463.0
5 1 9 299.0 332.0
6 2 10 115.0 136.0
7 1 11 136.0 170.0
8 0 -1 463.0 493.0
9 1 4 357.0 393.0
10 2 3 312.0 351.0
11 1 5 231.0 256.0
